NAME : E101-14u.1082646.tour
COMMENT : Length = 1082646
COMMENT : Found by LKH [Keld Helsgaun] Tue May  8 13:50:38 2018
TYPE : TOUR
DIMENSION : 114
TOUR_SECTION
1
54
28
102
19
9
47
37
50
65
12
63
89
109
53
8
20
48
49
83
114
2
52
10
82
34
80
51
110
32
11
64
91
33
31
71
70
112
97
100
94
86
101
38
93
113
13
69
4
78
77
29
103
24
68
40
26
56
55
106
14
88
98
96
95
111
81
25
30
79
35
36
72
66
67
21
107
74
75
23
42
16
44
15
43
58
3
59
105
41
22
73
76
57
5
27
108
7
60
6
85
18
46
84
61
90
104
62
17
87
39
45
92
99
-1
EOF
